1 - 0
2 - 0
3 - 0
4 - 0
5 - 0
6 - 0
7 - 0
8 - 0
9 - 0
10 - 0
11 - 0
12 - 0
13 - 0
14 - 0
15 - 0
16 - 0
17 - 0
18 - 0
19 - 0
20 - 0
21 - 0
22 - 0
23 - 0
24 - 0
25 - 0
26 - 0
27 - 0
28 - 0
29 - 0
30 - 0
31 - 0
32 - 0
33 - 0
34 - 0
35 - 0
36 - 0
37 - 0
38 - 0
39 - 0
40 - 0
41 - 0
42 - 0
43 - 0
44 - 0
45 - 0
46 - 0
47 - 0
48 - 0
49 - 0
50 - 0
51 - 0
52 - 0
53 - 0
54 - 0
55 - 0
56 - 0
57 - 0
58 - 0
59 - 0
60 - 0
61 - 0
62 - 0
63 - 0
64 - 0
65 - 0
66 - 0
67 - 0
68 - 0
69 - 0
70 - 0
71 - 0
72 - 0
73 - 0
74 - 0
75 - 0
76 - 0
77 - 0
78 - 0
79 - 0
80 - 0
81 - 0
82 - 0
83 - 0
84 - 0
85 - 0
86 - 0
87 - 0
88 - 0
89 - 0
90 - 0
91 - 0
92 - 0
93 - 0
94 - 0
95 - 0
96 - 0
97 - 0
98 - 0
99 - 0
100 - 0
101 - 0
102 - 0
103 - 0
104 - 0
105 - 0
106 - 0
107 - 0
108 - 0
109 - 0
110 - 0
111 - 0
112 - 3
113 - 6
114 - 1
115 - 5
116 - 12
117 - 16
118 - 19
119 - 23
120 - 35
121 - 39
122 - 37
123 - 54
124 - 57
125 - 55
126 - 57
127 - 41
128 - 38
129 - 29
130 - 41
131 - 35
132 - 36
133 - 32
134 - 29
135 - 39
136 - 41
137 - 41
138 - 33
139 - 31
140 - 46
141 - 52
142 - 43
143 - 48
144 - 47
145 - 58
146 - 53
147 - 52
148 - 59
149 - 48
150 - 70
151 - 81
152 - 53
153 - 89
154 - 60
155 - 82
156 - 75
157 - 94
158 - 90
159 - 80
160 - 106
161 - 99
162 - 120
163 - 97
164 - 113
165 - 117
166 - 156
167 - 134
168 - 126
169 - 150
170 - 135
171 - 164
172 - 177
173 - 173
174 - 163
175 - 176
176 - 211
177 - 169
178 - 217
179 - 211
180 - 242
181 - 256
182 - 245
183 - 266
184 - 291
185 - 297
186 - 357
187 - 331
188 - 350
189 - 380
190 - 405
191 - 420
192 - 449
193 - 469
194 - 507
195 - 513
196 - 555
197 - 559
198 - 638
199 - 703
200 - 728
201 - 766
202 - 804
203 - 879
204 - 937
205 - 1024
206 - 1079
207 - 1089
208 - 1200
209 - 1265
210 - 1420
211 - 1425
212 - 1446
213 - 1579
214 - 1736
215 - 1862
216 - 2038
217 - 2119
218 - 2302
219 - 2409
220 - 2534
221 - 2593
222 - 2732
223 - 2953
224 - 3084
225 - 3211
226 - 3340
227 - 3477
228 - 3495
229 - 3539
230 - 3659
231 - 3800
232 - 3950
233 - 3803
234 - 3925
235 - 3871
236 - 3797
237 - 3612
238 - 3556
239 - 3404
240 - 3286
241 - 3051
242 - 2670
243 - 2479
244 - 2263
245 - 1923
246 - 1452
247 - 1131
248 - 805
249 - 388
250 - 0

0.1 - 12888
0.2 - 12976
0.3 - 12991
0.4 - 13013
0.5 - 12932
0.6 - 12713
0.7 - 12996
0.8 - 12716
0.9 - 13065
1 - 13012
